942545
921016
921016
921016
921016
921016
921016
915337
908826
908826
894248
877149
877149
877149
877149
877149
877149
877149
876210
872835
872835
872835
860248
860248
860248
859930
842493
842493
842493
842493
842493
842493
836314
836314
832772
830641
830641
830517
830517
830517
827127
827127
827127
827127
826029
820328
820328
820328
817855
817855
815774
815774
809005
809005
807737
800412
800412
800412
800412
800412
800412
800412
800412
798602
798602
798602
798602
798602
798602
798602
798602
796939
796939
796939
796939
793531
793531
793531
793531
793531
793531
793531
793531
793531
793531
782663
782564
782564
782564
777349
775539
775539
775539
775539
775539
775441
775441
775441
775441
771279
